10
[-1, 448, 32, 0, 201, 0, 471, 0, 0, 14, 
448, -1, 0, 0, 497, 143, 41, 0, 0, 0, 
32, 0, -1, 497, 0, 16, 0, 286, 0, 0, 
0, 0, 497, -1, 13, 0, 51, 281, 216, 164, 
201, 497, 0, 13, -1, 356, 0, 44, 0, 200, 
0, 143, 16, 0, 356, -1, 74, 325, 324, 0, 
471, 41, 0, 51, 0, 74, -1, 0, 392, 108, 
0, 0, 286, 281, 44, 325, 0, -1, 27, 439, 
0, 0, 0, 216, 0, 324, 392, 27, -1, 80, 
14, 0, 0, 164, 200, 0, 108, 439, 80, -1]